s td 31 10 40
b 1 7 21
b 2 27 38
b 3 4 23 28
b 4 12 40
b 5 1 12
b 6 20 29 30
b 7 16 26 37
b 8 23 24 32
b 9 6 30 34
b 10 19 23 24 33
b 11 16 19 25 33
b 12 1 5 13 17 19 21 30 33 35 39
b 13 5 9 13 17 19 30 35 39
b 14 2 5 9 13 17 19 35
b 15 1 13 17 18 19 21 30 33 35 39
b 16 1 6 13 17 18 19 21 30 33 39
b 17 1 6 13 18 19 21 22 33 39
b 18 3 6 13 22
b 19 1 6 13 14 18 19 21 22 39
b 20 1 13 14 19 21 22 36 39
b 21 11 14 19 21 22 36 39
b 22 11 14 19 22 38
b 23 1 22 31 36
b 24 17 18 19 21 23 33 39
b 25 4 17 18 21 23
b 26 1 13 18 29 30
b 27 1 5 10 13 17 19 21 30 33 35
b 28 1 5 10 13 19 30 33 35 37
b 29 1 16 19 30 33 35 37
b 30 8 16 30 35
b 31 5 15 19 21
1 12
2 22
3 25
4 5
5 12
6 26
7 29
8 10
9 16
10 24
11 29
12 13
12 15
12 27
12 31
13 14
15 16
15 24
15 26
16 17
17 18
17 19
19 20
20 21
20 23
21 22
24 25
27 28
28 29
29 30
